(set-logic CHC_LIA)

(synth-fun state ((x_0 Bool) (x_1 Bool) (x_2 Bool) (x_3 Bool) (x_4 Bool) (x_5 Int) (x_6 Int) (x_7 Int) (x_8 Int) (x_9 Int)) Bool)

(constraint (forall ((.s.1 Bool) (.s.0 Bool) (.s.2 Bool) (.s.3 Bool) (.s.4 Bool) (main.i Int) (main.j Int) (main.k Int) (main.b Int) (main.n Int)) (=> (and (not .s.1) .s.0 (not .s.2) (not .s.3) (not .s.4)) (state .s.1 .s.0 .s.2 .s.3 .s.4 main.i main.j main.k main.b main.n))))
(constraint (forall ((.s.1 Bool) (.s.0 Bool) (.s.2 Bool) (.s.3 Bool) (.s.4 Bool) (main.i Int) (main.j Int) (main.k Int) (main.b Int) (main.n Int) (.s.0.next Bool) (.s.1.next Bool) (.s.2.next Bool) (.s.3.next Bool) (.s.4.next Bool) (main.i.next Int) (main.j.next Int) (main.k.next Int) (main.b.next Int) (main.n.next Int)) (let ((a!1 (and (not .s.3) (and (not .s.2) (and .s.1 (not .s.0))))) (a!2 (and (and (and (not .s.0.next) .s.1.next) (not .s.2.next)) (not .s.3.next))) (a!4 (and (and (and (not .s.1) .s.0) (not .s.2)) (not .s.3))) (a!5 (and (not .s.3.next) (and (not .s.2.next) (and (not .s.0.next) (not .s.1.next))))) (a!7 (and (not .s.3) (and (not .s.2) (and (not .s.1) (not .s.0))))) (a!8 (and (= main.n main.n.next) (= main.b main.b.next) (= main.k main.k.next) (= main.j main.j.next) (= main.i main.i.next) .s.4.next (not .s.3.next) (and (not .s.2.next) (and .s.0.next (not .s.1.next))))) (a!9 (and (and (not .s.4) .s.3 (and .s.2 (and .s.1 .s.0))) (not (= main.i main.j)))) (a!10 (and (and (not .s.4) .s.3 (and .s.2 (and .s.1 .s.0))) (= main.i main.j))) (a!11 (and (not .s.4) .s.3 (and .s.2 (and .s.1 (not .s.0))))) (a!12 (and (not .s.4.next) (not .s.3.next) (and .s.2.next (and .s.0.next .s.1.next)))) (a!13 (and (not .s.4) .s.3 (and (and (not .s.1) .s.0) .s.2))) (a!14 (= (+ main.j (* (- 1) main.j.next)) (- 1))) (a!16 (and (not .s.4) .s.3 (and .s.2 (and (not .s.1) (not .s.0))))) (a!17 (and (not .s.4.next) .s.3.next (and (not .s.2.next) (and .s.0.next (not .s.1.next))))) (a!18 (not (and (not .s.4) .s.3 (and (not .s.2) (and .s.1 .s.0))))) (a!19 (and (= main.n main.n.next) (= main.k main.k.next) (= main.j main.j.next) (= main.i main.i.next) (= main.b.next 1) (not .s.4.next) .s.3.next (and .s.2.next (and (not .s.0.next) (not .s.1.next))))) (a!20 (and (not .s.4) .s.3 (and (not .s.2) (and .s.1 (not .s.0))))) (a!21 (and (not .s.4.next) (not .s.3.next) (and .s.2.next (and (not .s.0.next) (not .s.1.next))))) (a!22 (and (not .s.4) (and (and (not .s.1) .s.0) (not .s.2)) .s.3)) (a!23 (= (+ main.n (* (- 1) main.n.next)) (- 1))) (a!25 (and (not .s.4) .s.3 (and (not .s.2) (and (not .s.1) (not .s.0))))) (a!26 (and (not .s.4) (not .s.3) (and .s.2 (and .s.1 .s.0)))) (a!28 (and (= main.n main.n.next) (= main.b main.b.next) (= main.k main.k.next) (= main.j main.j.next) (= main.i main.i.next) (not .s.4.next) .s.3.next (and (not .s.2.next) (and (not .s.0.next) (not .s.1.next))))) (a!30 (and (not .s.4) (not .s.3) (and .s.2 (and .s.1 (not .s.0))))) (a!31 (= (+ main.i (* (- 1) main.i.next)) (- 1))) (a!32 (and (not .s.4) (not .s.3) (and (and (not .s.1) .s.0) .s.2))) (a!34 (and (= main.n main.n.next) (= main.b main.b.next) (= main.k main.k.next) (= main.j main.j.next) (= main.i main.i.next) (not .s.4.next) (not .s.3.next) (and (and (not .s.0.next) .s.1.next) .s.2.next))) (a!35 (and (= main.n main.n.next) (= main.b main.b.next) (= main.k main.k.next) (= main.j main.j.next) (= main.i main.i.next) (not .s.4.next) .s.3.next (and .s.2.next (and .s.0.next (not .s.1.next))))) (a!37 (and (not .s.4) (not .s.3) (and .s.2 (and (not .s.1) (not .s.0))))) (a!38 (<= (+ (* 2 main.k) (* (- 1) main.n)) 0)) (a!40 (and (= main.n main.n.next) (= main.b main.b.next) (= main.k main.k.next) (= main.j main.j.next) (= main.i main.i.next) (not .s.4.next) (not .s.3.next) (and .s.2.next (and .s.0.next (not .s.1.next))))) (a!42 (not (and (not .s.4) (not .s.3) (and (not .s.2) (and .s.1 .s.0)))))) (let ((a!3 (and a!2 .s.4.next (= main.i main.i.next) (= main.j main.j.next) (= main.k main.k.next) (= main.b main.b.next) (= main.n main.n.next))) (a!6 (and (= main.n main.n.next) (= main.b main.b.next) (= main.k main.k.next) (= main.j main.j.next) (= main.i main.i.next) (not .s.4.next) a!5)) (a!15 (and (= main.n main.n.next) (= main.b main.b.next) (= main.k main.k.next) (= main.i main.i.next) a!14 (not .s.4.next) .s.3.next (and (and (not .s.0.next) .s.1.next) .s.2.next))) (a!24 (and (= main.b main.b.next) (= main.k main.k.next) (= main.j main.j.next) (= main.i main.i.next) a!23 (not .s.4.next) (and (and (not .s.0.next) .s.1.next) (not .s.2.next)) .s.3.next)) (a!27 (not (and a!26 (not (= main.b 0))))) (a!29 (or (not (and a!26 (= main.b 0))) (and (= main.n main.n.next) (= main.b main.b.next) (= main.k main.k.next) (= main.j main.j.next) (= main.i main.i.next) (not .s.4.next) .s.3.next (and (not .s.2.next) (and .s.0.next .s.1.next))))) (a!33 (not (and (not (= main.b 0)) a!32))) (a!36 (or (not (and (= main.b 0) a!32)) a!35)) (a!39 (or (not (and a!37 a!38)) (and (= main.n main.n.next) (= main.b main.b.next) (= main.k main.k.next) (= main.j main.j.next) (= main.i main.i.next) (not .s.4.next) .s.3.next (and .s.2.next (and .s.0.next .s.1.next))))) (a!41 (or (not (and a!37 (not a!38))) a!40)) (a!43 (or (not (and (not .s.4) a!1)) (and (= main.n main.n.next) (= main.b main.b.next) (= main.j main.j.next) (= main.i main.i.next) (= main.k.next 100) (not .s.4.next) (not .s.3.next) (and (not .s.2.next) (and .s.0.next .s.1.next))))) (a!44 (or (not (and a!4 (not .s.4))) (and (= main.n main.n.next) (= main.b main.b.next) (= main.k main.k.next) (= main.j main.j.next) (= main.i.next main.j) a!2 (not .s.4.next))))) (let ((a!45 (or a!6 (not (and (not .s.4) a!7))))) (let ((a!46 (and (state .s.1 .s.0 .s.2 .s.3 .s.4 main.i main.j main.k main.b main.n) (or (not (and .s.4 a!1)) a!3) (or (not (and a!4 .s.4)) a!6) (or (not (and .s.4 a!7)) a!8) (or a!3 (not a!9)) (or (not a!10) (and (= main.n main.n.next) (= main.b main.b.next) (= main.k main.k.next) (= main.j main.j.next) (= main.i main.i.next) .s.4.next a!5)) (or (not a!11) (and (= main.n main.n.next) (= main.b main.b.next) (= main.k main.k.next) (= main.j main.j.next) (= main.i main.i.next) a!12)) (or (not a!13) a!15) (or (not a!16) (and (= main.n main.n.next) (= main.b main.b.next) (= main.k main.k.next) (= main.j main.j.next) (= main.i main.i.next) a!17)) (or a!18 a!19) (or (not a!20) (and (= main.n main.n.next) (= main.b main.b.next) (= main.k main.k.next) (= main.j main.j.next) (= main.i main.i.next) a!21)) (or (not a!22) a!24) (or (not a!25) (and (= main.n main.n.next) (= main.k main.k.next) (= main.j main.j.next) (= main.i main.i.next) a!17 (= main.b.next 0))) (or a!27 a!28) a!29 (or (not a!30) (and (= main.n main.n.next) (= main.b main.b.next) (= main.k main.k.next) (= main.j main.j.next) a!12 a!31)) (or a!33 a!34) a!36 a!39 a!41 (or a!42 (and (= main.b main.b.next) (= main.k main.k.next) (= main.j main.j.next) (= main.i main.i.next) a!21 (= main.n.next 0))) a!43 a!44 a!45))) (=> a!46 (state .s.1.next .s.0.next .s.2.next .s.3.next .s.4.next main.i.next main.j.next main.k.next main.b.next main.n.next))))))))
(constraint (forall ((.s.1 Bool) (.s.0 Bool) (.s.2 Bool) (.s.3 Bool) (.s.4 Bool) (main.i Int) (main.j Int) (main.k Int) (main.b Int) (main.n Int)) (let ((a!1 (not (not (and .s.4 (not .s.3) (not .s.2) .s.1 (not .s.0)))))) (=> (and (state .s.1 .s.0 .s.2 .s.3 .s.4 main.i main.j main.k main.b main.n) a!1) false))))

(check-synth)

